19 700
0 0 150 150 0 0 3815 0 0 0
1 151 206 171 30 59 219 90 0 219
2 504 219 174 30 662 822 90 0 346
3 74 222 160 20 856 1016 90 0 113
4 51 224 155 20 952 1112 90 0 516
5 510 226 164 10 1150 1310 90 0 22
6 249 223 177 10 1253 1413 90 0 525
7 450 227 187 20 1261 1421 90 0 564
8 515 210 181 10 2709 2869 0 0 605
9 569 192 185 20 2908 3068 90 0 596
10 219 230 182 -30 2484 2644 90 151 0
11 346 220 171 -30 755 915 90 504 0
12 113 233 160 -20 1052 1212 90 74 0
13 516 198 182 -20 2811 2971 90 51 0
14 22 182 178 -10 3190 3350 90 510 0
15 525 229 186 -10 1354 1514 90 249 0
16 564 185 180 -20 3096 3256 90 450 0
17 605 210 181 -10 2709 2869 90 515 0
18 596 186 181 -20 3005 3165 90 569 0

